FILENAME:   /home/mcs001/s132664/testsets/IP/miplib2017/neos-957143.mps.gz
SETTINGS:   settings_final_nosym_norestarts
TIMELIMIT:  7200
OUTPUTNAME: final_miplib_symretope_if_extended_generating_set_cpx_v802__settings_final_nosym_norestarts__4__
BINNAME:    bin/sbcs.linux.x86_64.gnu.opt.cpx
BASENAME:   neos-957143.mps.gz
SEED:       4
@01 /home/mcs001/s132664/testsets/IP/miplib2017/neos-957143.mps.gz ===========
@02 neos-957143.mps.gz
@03 1686664506
SCIP version 8.0.2 [precision: 8 byte] [memory: block] [mode: optimized] [LP solver: CPLEX 20.1.0.0] [GitHash: 5f0473c]
Copyright (C) 2002-2022 Konrad-Zuse-Zentrum fuer Informationstechnik Berlin (ZIB)

Symretope propagation methods - (c) Jasper van Doornmalen, Christopher Hojny.
[GitHash: 2fd0484]

reading parameter file <../settings/settings_final_nosym_norestarts.set> ...

Changed settings:
limits/time = 7200
limits/restarts = 0
misc/usesymmetry = 0
randomization/randomseedshift = 4
constraints/orbisack/sepafreq = -1
constraints/symresack/sepafreq = -1
propagating/symmetry/detectsubgroups = FALSE
propagating/symmetry/usesymretopes = FALSE
propagating/symmetry/relabelsymretopes = 0
propagating/symmetry/ofsymcomptiming = 0
constraints/symretope/sepafreq = -1
constraints/symretope/peek = FALSE


solving problem ...

original problem has 57756 variables (57756 bin, 0 int, 0 impl, 0 cont) and 2767 constraints
feasible solution found by trivial heuristic after 0.4 seconds, objective value 0.000000e+00
presolving:
(round 1, fast)       47 del vars, 1 del conss, 0 add conss, 0 chg bounds, 172 chg sides, 946 chg coeffs, 0 upgd conss, 0 impls, 6721 clqs
(round 2, exhaustive) 47 del vars, 517 del conss, 0 add conss, 0 chg bounds, 172 chg sides, 946 chg coeffs, 0 upgd conss, 0 impls, 6721 clqs
(round 3, exhaustive) 47 del vars, 517 del conss, 0 add conss, 0 chg bounds, 172 chg sides, 946 chg coeffs, 2246 upgd conss, 0 impls, 6721 clqs
(round 4, fast)       47 del vars, 755 del conss, 119 add conss, 0 chg bounds, 172 chg sides, 7290 chg coeffs, 2246 upgd conss, 0 impls, 6721 clqs
(round 5, fast)       47 del vars, 755 del conss, 119 add conss, 0 chg bounds, 276 chg sides, 28818 chg coeffs, 2246 upgd conss, 0 impls, 6721 clqs
(round 6, medium)     47 del vars, 1029 del conss, 256 add conss, 0 chg bounds, 413 chg sides, 56834 chg coeffs, 2246 upgd conss, 0 impls, 6721 clqs
(round 7, exhaustive) 47 del vars, 1304 del conss, 256 add conss, 0 chg bounds, 413 chg sides, 56834 chg coeffs, 2246 upgd conss, 0 impls, 6721 clqs
(round 8, exhaustive) 47 del vars, 1304 del conss, 256 add conss, 0 chg bounds, 413 chg sides, 56834 chg coeffs, 2250 upgd conss, 0 impls, 6721 clqs
(round 9, medium)     51 del vars, 1308 del conss, 256 add conss, 0 chg bounds, 413 chg sides, 56834 chg coeffs, 2250 upgd conss, 0 impls, 6721 clqs
(round 10, fast)       51 del vars, 1312 del conss, 260 add conss, 0 chg bounds, 413 chg sides, 56834 chg coeffs, 2250 upgd conss, 0 impls, 6721 clqs
(round 11, exhaustive) 51 del vars, 1312 del conss, 260 add conss, 0 chg bounds, 413 chg sides, 56834 chg coeffs, 2254 upgd conss, 0 impls, 6721 clqs
   (27.5s) probing: 1000/57705 (1.7%) - 8 fixings, 0 aggregations, 338983 implications, 0 bound changes
presolving (12 rounds: 12 fast, 8 medium, 6 exhaustive):
 83 deleted vars, 1312 deleted constraints, 260 added constraints, 0 tightened bounds, 0 added holes, 413 changed sides, 56834 changed coefficients
 0 implications, 6721 cliques
presolved problem has 57673 variables (57673 bin, 0 int, 0 impl, 0 cont) and 1715 constraints
    497 constraints of type <knapsack>
   1218 constraints of type <setppc>
transformed objective value is always integral (scale: 0.00222222222222222)
Presolving Time: 31.15
transformed 1/1 original solutions to the transformed problem space

 time | node  | left  |LP iter|LP it/n|mem/heur|mdpt |vars |cons |rows |cuts |sepa|confs|strbr|  dualbound   | primalbound  |  gap   | compl. 
p34.4s|     1 |     0 |   221 |     - |   locks|   0 |  57k|1713 |1712 |   0 |  0 |   0 |   0 |-5.754400e+04 |-6.269556e+01 |  Large | unknown
i39.7s|     1 |     0 |   345 |     - |  oneopt|   0 |  57k|1728 |1712 |   0 |  0 |  15 |   0 |-5.754400e+04 |-1.946956e+02 |  Large | unknown
 40.2s|     1 |     0 |   425 |     - |   423M |   0 |  57k|1728 |1712 |   0 |  0 |  15 |   0 |-2.377700e+02 |-1.946956e+02 |  22.12%| unknown
 41.5s|     1 |     0 |   640 |     - |   435M |   0 |  57k|1729 |1713 |   1 |  1 |  16 |   0 |-2.377700e+02 |-1.946956e+02 |  22.12%| unknown
 42.3s|     1 |     0 |   698 |     - |   436M |   0 |  57k|1730 |1714 |   2 |  2 |  17 |   0 |-2.377700e+02 |-1.946956e+02 |  22.12%| unknown
 43.5s|     1 |     0 |   802 |     - |   437M |   0 |  57k|1731 |1715 |   3 |  3 |  18 |   0 |-2.377700e+02 |-1.946956e+02 |  22.12%| unknown
d50.4s|     1 |     0 |  7152 |     - |farkasdi|   0 |  57k|1732 |1715 |   0 |  5 |  19 |   0 |-2.377700e+02 |-2.377644e+02 |   0.00%| unknown
d54.3s|     1 |     0 | 11370 |     - |conflict|   0 |  57k|1738 |1715 |   0 |  5 |  25 |   0 |-2.377700e+02 |-2.377689e+02 |   0.00%| unknown
 54.4s|     1 |     0 | 11370 |     - |   447M |   0 |  57k|1738 |1715 |   3 |  5 |  25 |   0 |-2.377689e+02 |-2.377689e+02 |   0.00%| unknown

SCIP Status        : problem is solved [optimal solution found]
Solving Time (sec) : 54.43
Solving Nodes      : 1
Primal Bound       : -2.37768888888889e+02 (6 solutions)
Dual Bound         : -2.37768888888889e+02
Gap                : 0.00 %
SCIP Status        : problem is solved [optimal solution found]
Total Time         :      54.79
  solving          :      54.43
  presolving       :      31.15 (included in solving)
  reading          :       0.36
  copying          :       0.00 (0 times copied the problem)
Original Problem   :
  Problem name     : neos-957143
  Variables        : 57756 (57756 binary, 0 integer, 0 implicit integer, 0 continuous)
  Constraints      : 2767 initial, 2767 maximal
  Objective        : minimize, 57621 non-zeros (abs.min = 0.00222222, abs.max = 1)
Presolved Problem  :
  Problem name     : t_neos-957143
  Variables        : 57673 (57673 binary, 0 integer, 0 implicit integer, 0 continuous)
  Constraints      : 1715 initial, 1738 maximal
  Objective        : minimize, 57589 non-zeros (abs.min = 1, abs.max = 450)
  Nonzeros         : 332919 constraint, 995320 clique table
Presolvers         :   ExecTime  SetupTime  Calls  FixedVars   AggrVars   ChgTypes  ChgBounds   AddHoles    DelCons    AddCons   ChgSides   ChgCoefs
  boundshift       :       0.00       0.00      0          0          0          0          0          0          0          0          0          0
  convertinttobin  :       0.00       0.00      0          0          0          0          0          0          0          0          0          0
  domcol           :       0.53       0.00      1          0          0          0          0          0          0          0          0          0
  dualagg          :       0.00       0.00      0          0          0          0          0          0          0          0          0          0
  dualcomp         :       0.00       0.00      0          0          0          0          0          0          0          0          0          0
  dualinfer        :       0.00       0.00      0          0          0          0          0          0          0          0          0          0
  dualsparsify     :       0.13       0.00      1          0          0          0          0          0          0          0          0          0
  gateextraction   :       0.00       0.00      0          0          0          0          0          0          0          0          0          0
  implics          :       0.01       0.00      8          0          0          0          0          0          0          0          0          0
  inttobinary      :       0.00       0.00      0          0          0          0          0          0          0          0          0          0
  qpkktref         :       0.00       0.00      0          0          0          0          0          0          0          0          0          0
  redvub           :       0.00       0.00      0          0          0          0          0          0          0          0          0          0
  sparsify         :       0.07       0.00      1          0          0          0          0          0          0          0          0          0
  stuffing         :       0.00       0.00      0          0          0          0          0          0          0          0          0          0
  trivial          :       0.04       0.00     12          0          0          0          0          0          0          0          0          0
  tworowbnd        :       0.00       0.00      0          0          0          0          0          0          0          0          0          0
  dualfix          :       0.03       0.00     12         46          0          0          0          0          0          0          0          0
  genvbounds       :       0.00       0.00      0          0          0          0          0          0          0          0          0          0
  probing          :      26.57       0.00      1         32          0          0          0          0          0          0          0          0
  pseudoobj        :       0.01       0.00      1          0          0          0          0          0          0          0          0          0
  symmetry         :       0.00       0.00      0          0          0          0          0          0          0          0          0          0
  vbounds          :       0.03       0.00      1          0          0          0          0          0          0          0          0          0
  knapsack         :       0.41       0.01     19          0          0          0          0          0        256        256        241      55888
  setppc           :       0.68       0.01     19          0          4          0          0          0        539          4          0          0
  linear           :       2.31       0.11     14          0          1          0          0          0        517          0        172        946
  logicor          :       0.00       0.00      0          0          0          0          0          0          0          0          0          0
  benders          :       0.00       0.00      0          0          0          0          0          0          0          0          0          0
  components       :       0.08       0.00      1          0          0          0          0          0          0          0          0          0
  root node        :          -          -      -          1          -          -          1          -          -          -          -          -
Constraints        :     Number  MaxNumber  #Separate #Propagate    #EnfoLP    #EnfoRelax  #EnfoPS    #Check   #ResProp    Cutoffs    DomReds       Cuts    Applied      Conss   Children
  benderslp        :          0          0          0          0          0          0          0         13          0          0          0          0          0          0          0
  integral         :          0          0          0          0          0          0          0         13          0          0          0          0          0          0          0
  knapsack         :        497        497          4      42746          0          0          0          8       3482         15          0          0          0          0          0
  setppc           :       1218+      1230          4      42734          0          0          0          7       2334          5          0          0          0          0          0
  logicor          :          0+        11          4         13          0          0          0          0          0          0          0          0          0          0          0
  benders          :          0          0          0          0          0          0          0          8          0          0          0          0          0          0          0
  countsols        :          0          0          0          0          0          0          0          8          0          0          0          0          0          0          0
  components       :          0          0          0          0          0          0          0          0          0          0          0          0          0          0          0
Constraint Timings :  TotalTime  SetupTime   Separate  Propagate     EnfoLP     EnfoPS     EnfoRelax   Check    ResProp    SB-Prop
  benderslp        :       0.00       0.00       0.00       0.00       0.00       0.00       0.00       0.00       0.00       0.00
  integral         :       0.03       0.00       0.00       0.00       0.00       0.00       0.00       0.03       0.00       0.00
  knapsack         :      17.80       0.01       1.30      16.46       0.00       0.00       0.00       0.03       0.00       0.00
  setppc           :       1.62       0.01       0.04       1.56       0.00       0.00       0.00       0.01       0.00       0.00
  logicor          :       0.00       0.00       0.00       0.00       0.00       0.00       0.00       0.00       0.00       0.00
  benders          :       0.00       0.00       0.00       0.00       0.00       0.00       0.00       0.00       0.00       0.00
  countsols        :       0.00       0.00       0.00       0.00       0.00       0.00       0.00       0.00       0.00       0.00
  components       :       0.00       0.00       0.00       0.00       0.00       0.00       0.00       0.00       0.00       0.00
Propagators        : #Propagate   #ResProp    Cutoffs    DomReds
  dualfix          :          3          0          0          1
  genvbounds       :          0          0          0          0
  nlobbt           :          0          0          0          0
  obbt             :          0          0          0          0
  probing          :          0          0          0          0
  pseudoobj        :          8          0          0          0
  redcost          :          5          0          0          0
  rootredcost      :          0          0          0          0
  symmetry         :          0          0          0          0
  vbounds          :        917          0          0          0
Propagator Timings :  TotalTime  SetupTime   Presolve  Propagate    ResProp    SB-Prop
  dualfix          :       0.04       0.00       0.03       0.01       0.00       0.00
  genvbounds       :       0.00       0.00       0.00       0.00       0.00       0.00
  nlobbt           :       0.00       0.00       0.00       0.00       0.00       0.00
  obbt             :       0.00       0.00       0.00       0.00       0.00       0.00
  probing          :      26.57       0.00      26.57       0.00       0.00       0.00
  pseudoobj        :       0.03       0.00       0.01       0.02       0.00       0.00
  redcost          :       0.02       0.00       0.00       0.02       0.00       0.00
  rootredcost      :       0.00       0.00       0.00       0.00       0.00       0.00
  symmetry         :       0.00       0.00       0.00       0.00       0.00       0.00
  vbounds          :       0.05       0.00       0.03       0.02       0.00       0.00
Conflict Analysis  :       Time      Calls    Success    DomReds  Conflicts   Literals    Reconvs ReconvLits   Dualrays   Nonzeros   LP Iters   (pool size: [10000,10000])
  propagation      :       0.00         15         15          -         25       22.2          0        0.0          -          -          -
  infeasible LP    :       0.09          1          1          -         87     2998.5          0        0.0          0        0.0          0
  bound exceed. LP :       3.86          1          0          -          0        0.0          0        0.0          0        0.0         20
  strong branching :       0.00          0          0          -          0        0.0          0        0.0          -          -          0
  pseudo solution  :       0.00          0          0          -          0        0.0          0        0.0          -          -          -
  applied globally :       0.00          -          -          0         25      294.6          -          -          0          -          -
  applied locally  :          -          -          -          0          0        0.0          -          -          0          -          -
Separators         :   ExecTime  SetupTime      Calls  RootCalls    Cutoffs    DomReds  FoundCuts ViaPoolAdd  DirectAdd    Applied ViaPoolApp  DirectApp      Conss
  cut pool         :       0.00          -          7          7          -          -          9          3          -          -          -          -          -    (maximal pool size:          9)
  aggregation      :       0.29       0.00          4          4          0          0          0          0          0          0          0          0          0
  > cmir           :          -          -          -          -          -          -          -          0          0          0          0          0          -
  > flowcover      :          -          -          -          -          -          -          -          0          0          0          0          0          -
  > knapsackcover  :          -          -          -          -          -          -          -          0          0          0          0          0          -
  cgmip            :       0.00       0.00          0          0          0          0          0          0          0          0          0          0          0
  clique           :       0.03       0.00          4          4          0          0          0          0          0          0          0          0          0
  closecuts        :       0.00       0.00          0          0          0          0          0          0          0          0          0          0          0
  convexproj       :       0.00       0.00          0          0          0          0          0          0          0          0          0          0          0
  disjunctive      :       0.00       0.00          0          0          0          0          0          0          0          0          0          0          0
  eccuts           :       0.00       0.00          0          0          0          0          0          0          0          0          0          0          0
  gauge            :       0.00       0.00          0          0          0          0          0          0          0          0          0          0          0
  gomory           :       0.41       0.00          4          4          0          0          4          1          0          1          1          0          0
  > gomorymi       :          -          -          -          -          -          -          -          0          0          0          0          0          -
  > strongcg       :          -          -          -          -          -          -          -          1          0          1          1          0          -
  impliedbounds    :       0.01       0.00          4          4          0          0          0          0          0          0          0          0          0
  interminor       :       0.00       0.00          0          0          0          0          0          0          0          0          0          0          0
  intobj           :       0.00       0.00          0          0          0          0          0          0          0          0          0          0          0
  mcf              :       0.02       0.00          1          1          0          0          0          0          0          0          0          0          0
  minor            :       0.00       0.00          0          0          0          0          0          0          0          0          0          0          0
  mixing           :       0.00       0.00          0          0          0          0          0          0          0          0          0          0          0
  oddcycle         :       0.00       0.00          0          0          0          0          0          0          0          0          0          0          0
  rapidlearning    :       0.01       0.00          0          0          0          0          0          0          0          0          0          0          0
  rlt              :       0.00       0.00          4          4          0          0          0          0          0          0          0          0          0
  zerohalf         :       0.39       0.00          4          4          0          0          5          2          0          2          2          0          0
Cutselectors       :   ExecTime  SetupTime      Calls  RootCalls   Selected     Forced   Filtered  RootSelec   RootForc   RootFilt 
  hybrid           :       0.00       0.00          3          3          3          0          0          3          0          0
Pricers            :   ExecTime  SetupTime      Calls       Vars
  problem variables:       0.00          -          0          0
Branching Rules    :   ExecTime  SetupTime   BranchLP  BranchExt   BranchPS    Cutoffs    DomReds       Cuts      Conss   Children
  allfullstrong    :       0.00       0.00          0          0          0          0          0          0          0          0
  cloud            :       0.00       0.00          0          0          0          0          0          0          0          0
  distribution     :       0.00       0.00          0          0          0          0          0          0          0          0
  fullstrong       :       0.00       0.00          0          0          0          0          0          0          0          0
  inference        :       0.00       0.00          0          0          0          0          0          0          0          0
  leastinf         :       0.00       0.00          0          0          0          0          0          0          0          0
  lookahead        :       0.00       0.00          0          0          0          0          0          0          0          0
  mostinf          :       0.00       0.00          0          0          0          0          0          0          0          0
  multaggr         :       0.00       0.00          0          0          0          0          0          0          0          0
  nodereopt        :       0.00       0.00          0          0          0          0          0          0          0          0
  pscost           :       0.00       0.00          0          0          0          0          0          0          0          0
  random           :       0.00       0.00          0          0          0          0          0          0          0          0
  relpscost        :       0.00       0.00          0          0          0          0          0          0          0          0
  vanillafullstrong:       0.00       0.00          0          0          0          0          0          0          0          0
Primal Heuristics  :   ExecTime  SetupTime      Calls      Found       Best
  LP solutions     :       0.00          -          -          0          0
  relax solutions  :       0.00          -          -          0          0
  pseudo solutions :       0.00          -          -          0          0
  strong branching :       0.00          -          -          0          0
  actconsdiving    :       0.00       0.00          0          0          0
  adaptivediving   :       0.00       0.00          0          0          0
  alns             :       0.00       0.00          0          0          0
  bound            :       0.00       0.00          0          0          0
  clique           :       0.93       0.00          1          0          0
  coefdiving       :       0.00       0.00          0          0          0
  completesol      :       0.00       0.00          0          0          0
  conflictdiving   :       2.59       0.00          1          1          1
  crossover        :       0.00       0.00          0          0          0
  dins             :       0.00       0.00          0          0          0
  distributiondivin:       0.00       0.00          0          0          0
  dps              :       0.00       0.00          0          0          0
  dualval          :       0.00       0.00          0          0          0
  farkasdiving     :       6.26       0.00          1          1          1
  feaspump         :       1.35       0.00          1          1          0
  fixandinfer      :       0.00       0.00          0          0          0
  fracdiving       :       0.00       0.00          0          0          0
  gins             :       0.00       0.00          0          0          0
  guideddiving     :       0.00       0.00          0          0          0
  indicator        :       0.00       0.00          0          0          0
  intdiving        :       0.00       0.00          0          0          0
  intshifting      :       0.00       0.00          0          0          0
  linesearchdiving :       0.00       0.00          0          0          0
  localbranching   :       0.00       0.00          0          0          0
  locks            :       2.00       0.00          1          1          1
  lpface           :       0.00       0.00          0          0          0
  mpec             :       0.00       0.00          0          0          0
  multistart       :       0.00       0.00          0          0          0
  mutation         :       0.00       0.00          0          0          0
  nlpdiving        :       0.00       0.00          0          0          0
  objpscostdiving  :       0.00       0.00          0          0          0
  octane           :       0.00       0.00          0          0          0
  ofins            :       0.00       0.00          0          0          0
  oneopt           :       0.07       0.00          1          1          1
  padm             :       0.00       0.00          0          0          0
  proximity        :       0.00       0.00          0          0          0
  pscostdiving     :       0.00       0.00          0          0          0
  randrounding     :       1.11       0.00          4          0          0
  rens             :       0.00       0.00          0          0          0
  reoptsols        :       0.00       0.00          0          0          0
  repair           :       0.00       0.00          0          0          0
  rins             :       0.00       0.00          0          0          0
  rootsoldiving    :       0.00       0.00          0          0          0
  rounding         :       0.01       0.00          4          0          0
  shiftandpropagate:       0.00       0.00          0          0          0
  shifting         :       0.04       0.00          4          0          0
  simplerounding   :       0.00       0.00          4          0          0
  subnlp           :       0.00       0.00          0          0          0
  trivial          :       0.17       0.00          2          1          1
  trivialnegation  :       0.00       0.00          0          0          0
  trustregion      :       0.00       0.00          0          0          0
  trysol           :       0.00       0.00          0          0          0
  twoopt           :       0.00       0.00          0          0          0
  undercover       :       0.00       0.00          0          0          0
  vbounds          :       5.12       0.00          1          0          0
  veclendiving     :       0.00       0.00          0          0          0
  zeroobj          :       0.00       0.00          0          0          0
  zirounding       :       0.00       0.00          1          0          0
  other solutions  :          -          -          -          0          -
LP                 :       Time      Calls Iterations  Iter/call   Iter/sec  Time-0-It Calls-0-It    ItLimit
  primal LP        :       0.00          0          0       0.00          -       0.00          0
  dual LP          :       0.86          4        457     114.25     532.10       0.00          0
  lex dual LP      :       0.00          0          0       0.00          -
  barrier LP       :       0.00          0          0       0.00          -       0.00          0
  resolve instable :       0.00          0          0       0.00          -
  diving/probing LP:       7.03         84      10913     129.92    1553.36
  strong branching :       0.00          0          0       0.00          -          -          -          0
    (at root node) :          -          0          0       0.00          -
  conflict analysis:       0.01          2         20      10.00          -
B&B Tree           :
  number of runs   :          1
  nodes            :          1 (0 internal, 1 leaves)
  feasible leaves  :          0
  infeas. leaves   :          0
  objective leaves :          1
  nodes (total)    :          1 (0 internal, 1 leaves)
  nodes left       :          0
  max depth        :          0
  max depth (total):          0
  backtracks       :          0 (0.0%)
  early backtracks :          0 (0.0%)
  nodes exc. ref.  :          0 (0.0%)
  delayed cutoffs  :          0
  repropagations   :          0 (0 domain reductions, 0 cutoffs)
  avg switch length:       2.00
  switching time   :       0.00
Root Node          :
  First LP value   : -2.37770000000000e+02
  First LP Iters   :         80 (160.30 Iter/sec)
  First LP Time    :       0.50
  Final Dual Bound : -2.37768888888889e+02
  Final Root Iters :        457
  Root LP Estimate :                     -
Solution           :
  Solutions found  :          6 (5 improvements)
  First Solution   : +0.00000000000000e+00   (in run 1, after 0 nodes, 0.27 seconds, depth 0, found by <trivial>)
  Gap First Sol.   :   infinite
  Gap Last Sol.    :       0.00 %
  Primal Bound     : -2.37768888888889e+02   (in run 1, after 1 nodes, 54.33 seconds, depth 228, found by <conflictdiving>)
  Dual Bound       : -2.37768888888889e+02
  Gap              :       0.00 %
Integrals          :      Total       Avg%
  primal-dual      :    4203.99      77.24
  primal-ref       :          -          - (not evaluated)
  dual-ref         :          -          - (not evaluated)
written solution information to file <results/final_miplib_symretope_if_extended_generating_set_cpx_v802__settings_final_nosym_norestarts__4__neos-957143.mps.gz.sol>
@04 1686664562
